p cnf 10 35
v 25 2 24 34 20 26 6 8 20 9
-5 1 -3 0
4 -3 -7 0
-10 -7 -5 0
-7 10 3 0
2 9 -10 0
-9 -2 -6 0
10 -8 5 0
-10 3 7 0
7 -9 10 0
-4 -1 -7 0
-8 -1 -6 0
-4 6 10 0
7 -10 -4 0
3 10 -5 0
-1 9 -6 0
8 2 10 0
-7 3 -6 0
-6 3 8 0
-5 10 8 0
10 -3 -7 0
2 -10 7 0
-1 -9 -7 0
-7 4 5 0
7 6 -4 0
10 8 9 0
9 1 -6 0
-6 -1 -4 0
2 -1 6 0
1 7 -6 0
1 6 9 0
-9 -4 8 0
4 -8 3 0
-4 6 10 0
-4 -7 -10 0
4 -9 3 0

